c "131932.clq"
p edge 150 584
e 1 5
e 1 7
e 1 11
e 1 14
e 1 15
e 1 16
e 1 21
e 1 23
e 1 24
e 1 32
e 1 34
e 1 47
e 1 48
e 1 56
e 1 63
e 1 75
e 1 76
e 1 95
e 1 104
e 2 5
e 2 6
e 2 7
e 2 8
e 2 9
e 2 10
e 2 12
e 2 14
e 2 15
e 2 17
e 2 20
e 2 21
e 2 26
e 2 27
e 2 28
e 2 29
e 2 35
e 2 36
e 2 37
e 2 39
e 2 40
e 2 65
e 2 67
e 2 69
e 2 75
e 2 76
e 2 80
e 2 88
e 2 89
e 2 92
e 2 96
e 2 99
e 2 103
e 2 113
e 2 115
e 2 119
e 2 129
e 2 141
e 2 143
e 3 5
e 3 6
e 3 7
e 3 8
e 3 15
e 3 24
e 3 27
e 3 31
e 3 58
e 3 78
e 3 103
e 3 107
e 4 5
e 4 6
e 4 8
e 4 9
e 4 25
e 4 47
e 4 48
e 4 49
e 4 59
e 4 81
e 4 91
e 5 6
e 5 7
e 5 8
e 5 10
e 5 11
e 5 12
e 5 13
e 5 14
e 5 17
e 5 18
e 5 26
e 5 27
e 5 37
e 5 39
e 5 43
e 5 44
e 5 50
e 5 52
e 5 64
e 5 65
e 5 95
e 5 102
e 5 114
e 5 117
e 5 120
e 5 126
e 5 128
e 5 129
e 5 132
e 5 142
e 6 13
e 6 19
e 6 22
e 6 25
e 6 28
e 6 29
e 6 46
e 6 47
e 6 86
e 6 92
e 6 101
e 6 109
e 6 123
e 6 143
e 7 9
e 7 10
e 7 11
e 7 13
e 7 15
e 7 19
e 7 22
e 7 25
e 7 27
e 7 30
e 7 37
e 7 42
e 7 48
e 7 55
e 7 64
e 7 70
e 7 117
e 7 125
e 7 126
e 7 134
e 8 9
e 8 10
e 8 11
e 8 22
e 8 35
e 8 36
e 8 43
e 8 46
e 8 50
e 8 66
e 8 68
e 8 77
e 8 78
e 8 84
e 8 98
e 8 101
e 8 113
e 8 121
e 9 12
e 9 13
e 9 54
e 9 57
e 9 58
e 9 59
e 9 64
e 9 105
e 9 115
e 9 134
e 10 12
e 10 16
e 10 19
e 10 21
e 10 22
e 10 31
e 10 39
e 10 49
e 10 51
e 10 53
e 10 87
e 10 118
e 10 119
e 10 122
e 10 137
e 11 14
e 11 17
e 11 18
e 11 23
e 11 26
e 11 54
e 11 56
e 11 62
e 11 68
e 11 72
e 11 73
e 11 99
e 11 118
e 11 140
e 12 16
e 12 20
e 12 26
e 12 30
e 12 71
e 12 81
e 12 86
e 13 16
e 13 18
e 13 25
e 13 31
e 13 32
e 13 33
e 13 98
e 13 131
e 13 141
e 13 150
e 14 30
e 14 34
e 14 38
e 14 52
e 14 90
e 14 93
e 14 94
e 14 108
e 14 112
e 15 20
e 15 21
e 15 57
e 15 95
e 16 17
e 16 18
e 16 20
e 16 28
e 16 34
e 16 35
e 16 38
e 16 40
e 16 42
e 16 67
e 16 83
e 17 19
e 17 23
e 17 28
e 17 45
e 17 47
e 17 53
e 17 58
e 17 60
e 17 68
e 17 72
e 17 100
e 17 133
e 17 140
e 18 23
e 18 24
e 18 33
e 18 41
e 18 45
e 18 59
e 18 74
e 18 76
e 18 148
e 18 150
e 19 29
e 19 36
e 19 39
e 19 43
e 19 66
e 19 70
e 19 77
e 19 97
e 19 103
e 19 145
e 20 32
e 20 33
e 20 41
e 20 42
e 20 81
e 20 84
e 20 99
e 20 133
e 20 138
e 20 148
e 21 29
e 21 41
e 21 49
e 21 51
e 21 54
e 21 72
e 21 92
e 21 101
e 21 110
e 21 112
e 21 127
e 21 137
e 22 24
e 22 32
e 22 81
e 22 125
e 22 136
e 23 111
e 23 135
e 23 140
e 24 71
e 24 77
e 24 106
e 24 110
e 24 131
e 25 30
e 25 31
e 25 33
e 25 34
e 25 36
e 25 42
e 25 51
e 25 57
e 25 60
e 25 73
e 25 82
e 25 83
e 25 111
e 25 112
e 25 122
e 25 126
e 25 142
e 25 145
e 26 62
e 26 65
e 26 88
e 26 146
e 27 38
e 27 59
e 27 70
e 27 123
e 27 142
e 27 147
e 28 45
e 28 57
e 28 82
e 28 124
e 28 143
e 28 148
e 29 37
e 29 76
e 29 139
e 30 35
e 30 45
e 30 48
e 30 61
e 30 144
e 31 74
e 31 130
e 31 141
e 32 44
e 32 49
e 32 50
e 32 56
e 32 60
e 32 68
e 32 74
e 32 96
e 32 102
e 32 105
e 32 121
e 32 130
e 32 138
e 32 144
e 33 61
e 33 69
e 33 73
e 33 100
e 33 112
e 33 131
e 33 138
e 34 40
e 34 41
e 34 53
e 34 60
e 34 61
e 34 70
e 34 97
e 34 109
e 34 110
e 34 114
e 34 116
e 35 38
e 35 40
e 35 53
e 35 63
e 35 69
e 35 77
e 35 82
e 35 91
e 35 116
e 35 120
e 35 125
e 35 137
e 36 55
e 36 61
e 36 93
e 36 114
e 37 43
e 37 44
e 37 46
e 37 54
e 37 62
e 37 108
e 38 46
e 38 58
e 38 72
e 38 90
e 38 91
e 38 133
e 39 44
e 39 71
e 39 80
e 39 86
e 39 87
e 39 104
e 39 107
e 39 138
e 39 148
e 40 87
e 40 94
e 40 99
e 40 107
e 40 118
e 40 135
e 41 83
e 41 97
e 41 144
e 42 55
e 42 85
e 42 88
e 42 96
e 42 106
e 42 114
e 42 119
e 42 127
e 42 146
e 42 147
e 43 74
e 43 109
e 43 111
e 43 149
e 44 52
e 45 51
e 45 65
e 45 71
e 45 94
e 45 121
e 46 50
e 46 67
e 46 78
e 46 88
e 46 135
e 47 66
e 47 92
e 47 147
e 48 55
e 48 120
e 49 64
e 49 102
e 49 106
e 50 56
e 50 66
e 50 104
e 50 121
e 51 52
e 51 79
e 51 83
e 51 86
e 51 96
e 51 142
e 53 63
e 53 93
e 54 82
e 54 98
e 54 106
e 54 115
e 54 139
e 54 149
e 55 129
e 56 75
e 56 108
e 56 128
e 57 62
e 57 75
e 57 91
e 57 128
e 58 85
e 58 100
e 58 108
e 58 117
e 58 120
e 58 140
e 60 78
e 60 79
e 60 146
e 61 89
e 62 63
e 62 67
e 62 100
e 62 124
e 62 134
e 63 79
e 63 116
e 63 134
e 63 150
e 64 87
e 64 111
e 65 137
e 66 69
e 66 102
e 66 136
e 67 85
e 68 73
e 68 84
e 68 101
e 68 103
e 68 104
e 68 107
e 68 133
e 69 127
e 70 85
e 70 116
e 71 94
e 71 126
e 71 130
e 71 141
e 72 84
e 72 90
e 74 123
e 74 130
e 74 132
e 75 79
e 75 90
e 75 93
e 75 139
e 76 109
e 77 80
e 77 89
e 77 97
e 77 135
e 79 80
e 79 105
e 79 139
e 79 150
e 80 89
e 80 149
e 81 132
e 84 105
e 84 122
e 84 124
e 87 123
e 89 98
e 89 117
e 90 127
e 90 136
e 91 145
e 92 95
e 92 144
e 92 146
e 94 113
e 94 115
e 95 110
e 99 113
e 99 124
e 99 132
e 103 147
e 105 122
e 106 129
e 107 118
e 111 149
e 113 125
e 114 119
e 116 128
e 117 136
e 121 143
e 123 131
e 124 145
